
--- Job hw10-2.gms Start 12/08/23 20:01:23 45.1.0 88bbff72 WEX-WEI x86 64bit/MS Windows
--- Applying:
    C:\GAMS\45\gmsprmNT.txt
--- GAMS Parameters defined
    Input C:\Users\Rocke\OneDrive\Documents\isye524\hw\hw10\hw10-2.gms
    PageSize 0
    ScrDir C:\Users\Rocke\OneDrive\Documents\isye524\hw\hw10\225a\
    SysDir C:\GAMS\45\
    LogOption 3
    ErrMsg 1
    ErrorLog 99
    IDE 1
    LstTitleLeftAligned 1
Licensee: Introduction to Optimization (CS/ISyE/ECE 524) G230906|0002AS-GEN
          UW-Madison, CS Dept., Fall 2023, Prof. Ferris              DCE850
          C:\GAMS\45\gamslice.txt
          License Admin: Michael C. Ferris, ferris@cs.wisc.edu             
          Course license for use within the course and related course work
          The evaluation period of the license will expire on Feb 03, 2024
Processor information: 1 socket(s), 4 core(s), and 8 thread(s) available
GAMS 45.1.0   Copyright (C) 1987-2023 GAMS Development. All rights reserved
--- Starting compilation
--- hw10-2.gms(181) 3 Mb
--- Starting execution: elapsed 0:00:00.014
--- hw10-2.gms(25) 4 Mb
--- Generating MIP model multi_product
--- hw10-2.gms(51) 4 Mb
---   13 rows  13 columns  53 non-zeroes
--- Range statistics (absolute non-zero finite values)
--- RHS       [min, max] : [ 1.000E+01, 2.000E+01] - Zero values observed as well
--- Bound     [min, max] : [        NA,        NA] - Zero values observed as well
--- Matrix    [min, max] : [ 1.000E+00, 2.400E+03]
--- Executing CPLEX (Solvelink=2): elapsed 0:00:00.029

IBM ILOG CPLEX   45.1.0 88bbff72 Oct 14, 2023          WEI x86 64bit/MS Window

--- GAMS/CPLEX licensed for continuous and discrete problems.
--- GMO setup time: 0.00s
--- GMO memory 0.50 Mb (peak 0.50 Mb)
--- Dictionary memory 0.00 Mb
--- Cplex 22.1.1.0 link memory 0.00 Mb (peak 0.00 Mb)
--- Starting Cplex

Version identifier: 22.1.1.0 | 2022-11-27 | 9160aff4d
CPXPARAM_Advance                                 0
CPXPARAM_Simplex_Display                         2
CPXPARAM_Threads                                 1
CPXPARAM_MIP_Display                             4
CPXPARAM_MIP_Pool_Capacity                       0
CPXPARAM_MIP_Tolerances_AbsMIPGap                0
Tried aggregator 1 time.
LP Presolve eliminated 12 rows and 13 columns.
All rows and columns eliminated.
Presolve time = 0.00 sec. (0.01 ticks)

--- LP status (1): optimal.
--- Cplex Time: 0.00sec (det. 0.01 ticks)


Optimal solution found
Objective:        40900.000000

--- Reading solution for model multi_product
--- Executing after solve: elapsed 0:00:00.080
--- hw10-2.gms(91) 4 Mb
--- Generating MIP model multi_product_scen
--- hw10-2.gms(115) 4 Mb
---   109 rows  29 columns  389 non-zeroes
--- Range statistics (absolute non-zero finite values)
--- RHS       [min, max] : [ 5.000E+00, 2.500E+01] - Zero values observed as well
--- Bound     [min, max] : [        NA,        NA] - Zero values observed as well
--- Matrix    [min, max] : [ 1.000E+00, 1.176E+03]
--- Executing CPLEX (Solvelink=2): elapsed 0:00:00.080

IBM ILOG CPLEX   45.1.0 88bbff72 Oct 14, 2023          WEI x86 64bit/MS Window

--- GAMS/CPLEX licensed for continuous and discrete problems.
--- GMO setup time: 0.00s
--- GMO memory 0.51 Mb (peak 0.51 Mb)
--- Dictionary memory 0.00 Mb
--- Cplex 22.1.1.0 link memory 0.00 Mb (peak 0.01 Mb)
--- Starting Cplex

Version identifier: 22.1.1.0 | 2022-11-27 | 9160aff4d
CPXPARAM_Advance                                 0
CPXPARAM_Threads                                 1
CPXPARAM_MIP_Display                             4
CPXPARAM_MIP_Pool_Capacity                       0
CPXPARAM_MIP_Tolerances_AbsMIPGap                0
Tried aggregator 1 time.
LP Presolve eliminated 70 rows and 8 columns.
Reduced LP has 38 rows, 21 columns, and 101 nonzeros.
Presolve time = 0.02 sec. (0.08 ticks)

Iteration log . . .
Iteration:     1   Dual infeasibility =           198.600000
Iteration:    11   Dual objective     =         54064.000000

--- LP status (1): optimal.
--- Cplex Time: 0.02sec (det. 0.16 ticks)


Optimal solution found
Objective:        46024.000000

--- Reading solution for model multi_product_scen
--- Executing after solve: elapsed 0:00:00.143
--- hw10-2.gms(165) 4 Mb
--- Generating MIP model multi_product_pois
--- hw10-2.gms(168) 4 Mb
--- LOOPS numScenarios = 100
---   291 rows  229 columns  571 non-zeroes
--- Range statistics (absolute non-zero finite values)
--- RHS       [min, max] : [ 3.000E+00, 3.300E+01] - Zero values observed as well
--- Bound     [min, max] : [        NA,        NA] - Zero values observed as well
--- Matrix    [min, max] : [ 1.000E+00, 1.176E+03]
--- Executing CPLEX (Solvelink=2): elapsed 0:00:00.152

IBM ILOG CPLEX   45.1.0 88bbff72 Oct 14, 2023          WEI x86 64bit/MS Window

--- GAMS/CPLEX licensed for continuous and discrete problems.
--- GMO setup time: 0.00s
--- Space for names approximately 0.01 Mb
--- Use option 'names no' to turn use of names off
--- GMO memory 0.56 Mb (peak 0.56 Mb)
--- Dictionary memory 0.00 Mb
--- Cplex 22.1.1.0 link memory 0.01 Mb (peak 0.03 Mb)
--- Starting Cplex

Version identifier: 22.1.1.0 | 2022-11-27 | 9160aff4d
CPXPARAM_Advance                                 0
CPXPARAM_Threads                                 1
CPXPARAM_MIP_Display                             4
CPXPARAM_MIP_Pool_Capacity                       0
CPXPARAM_MIP_Tolerances_AbsMIPGap                0
Primal unbounded due to dual bounds, variable 'x_scen(i2,9)'.
Presolve time = 0.00 sec. (0.07 ticks)

--- LP status (4): unbounded or infeasible.
--- Cplex Time: 0.00sec (det. 0.08 ticks)

*** WARNING: Presolve found the problem infeasible or unbounded
--- Cplex diagnoses the model to be either infeasible or unbounded.
--- There is no such GAMS Model Status so returning with a status of infeasible.
--- Model has been proven to be either infeasible or unbounded
--- Reading solution for model multi_product_pois
--- Executing after solve: elapsed 0:00:00.220
--- hw10-2.gms(165) 4 Mb
--- Generating MIP model multi_product_pois
--- hw10-2.gms(168) 4 Mb
--- LOOPS numScenarios = 200
---   291 rows  229 columns  571 non-zeroes
--- Range statistics (absolute non-zero finite values)
--- RHS       [min, max] : [ 3.000E+00, 3.300E+01] - Zero values observed as well
--- Bound     [min, max] : [        NA,        NA] - Zero values observed as well
--- Matrix    [min, max] : [ 1.000E+00, 1.176E+03]
--- Executing CPLEX (Solvelink=2): elapsed 0:00:00.220

IBM ILOG CPLEX   45.1.0 88bbff72 Oct 14, 2023          WEI x86 64bit/MS Window

--- GAMS/CPLEX licensed for continuous and discrete problems.
--- GMO setup time: 0.00s
--- Space for names approximately 0.01 Mb
--- Use option 'names no' to turn use of names off
--- GMO memory 0.56 Mb (peak 0.56 Mb)
--- Dictionary memory 0.00 Mb
--- Cplex 22.1.1.0 link memory 0.01 Mb (peak 0.03 Mb)
--- Starting Cplex

Version identifier: 22.1.1.0 | 2022-11-27 | 9160aff4d
CPXPARAM_Advance                                 0
CPXPARAM_Threads                                 1
CPXPARAM_MIP_Display                             4
CPXPARAM_MIP_Pool_Capacity                       0
CPXPARAM_MIP_Tolerances_AbsMIPGap                0
Primal unbounded due to dual bounds, variable 'x_scen(i2,9)'.
Presolve time = 0.00 sec. (0.07 ticks)

--- LP status (4): unbounded or infeasible.
--- Cplex Time: 0.00sec (det. 0.08 ticks)

*** WARNING: Presolve found the problem infeasible or unbounded
--- Cplex diagnoses the model to be either infeasible or unbounded.
--- There is no such GAMS Model Status so returning with a status of infeasible.
--- Model has been proven to be either infeasible or unbounded
--- Reading solution for model multi_product_pois
--- Executing after solve: elapsed 0:00:00.282
--- hw10-2.gms(165) 4 Mb
--- Generating MIP model multi_product_pois
--- hw10-2.gms(168) 4 Mb
--- LOOPS numScenarios = 400
---   291 rows  229 columns  571 non-zeroes
--- Range statistics (absolute non-zero finite values)
--- RHS       [min, max] : [ 3.000E+00, 3.300E+01] - Zero values observed as well
--- Bound     [min, max] : [        NA,        NA] - Zero values observed as well
--- Matrix    [min, max] : [ 1.000E+00, 1.176E+03]
--- Executing CPLEX (Solvelink=2): elapsed 0:00:00.290

IBM ILOG CPLEX   45.1.0 88bbff72 Oct 14, 2023          WEI x86 64bit/MS Window

--- GAMS/CPLEX licensed for continuous and discrete problems.
--- GMO setup time: 0.00s
--- Space for names approximately 0.01 Mb
--- Use option 'names no' to turn use of names off
--- GMO memory 0.56 Mb (peak 0.56 Mb)
--- Dictionary memory 0.00 Mb
--- Cplex 22.1.1.0 link memory 0.01 Mb (peak 0.03 Mb)
--- Starting Cplex

Version identifier: 22.1.1.0 | 2022-11-27 | 9160aff4d
CPXPARAM_Advance                                 0
CPXPARAM_Threads                                 1
CPXPARAM_MIP_Display                             4
CPXPARAM_MIP_Pool_Capacity                       0
CPXPARAM_MIP_Tolerances_AbsMIPGap                0
Primal unbounded due to dual bounds, variable 'x_scen(i2,9)'.
Presolve time = 0.00 sec. (0.07 ticks)

--- LP status (4): unbounded or infeasible.
--- Cplex Time: 0.00sec (det. 0.08 ticks)

*** WARNING: Presolve found the problem infeasible or unbounded
--- Cplex diagnoses the model to be either infeasible or unbounded.
--- There is no such GAMS Model Status so returning with a status of infeasible.
--- Model has been proven to be either infeasible or unbounded
--- Reading solution for model multi_product_pois
--- Executing after solve: elapsed 0:00:00.350
--- hw10-2.gms(165) 4 Mb
--- Generating MIP model multi_product_pois
--- hw10-2.gms(168) 4 Mb
--- LOOPS numScenarios = 800
---   291 rows  229 columns  571 non-zeroes
--- Range statistics (absolute non-zero finite values)
--- RHS       [min, max] : [ 3.000E+00, 3.300E+01] - Zero values observed as well
--- Bound     [min, max] : [        NA,        NA] - Zero values observed as well
--- Matrix    [min, max] : [ 1.000E+00, 1.176E+03]
--- Executing CPLEX (Solvelink=2): elapsed 0:00:00.350

IBM ILOG CPLEX   45.1.0 88bbff72 Oct 14, 2023          WEI x86 64bit/MS Window

--- GAMS/CPLEX licensed for continuous and discrete problems.
--- GMO setup time: 0.00s
--- Space for names approximately 0.01 Mb
--- Use option 'names no' to turn use of names off
--- GMO memory 0.56 Mb (peak 0.56 Mb)
--- Dictionary memory 0.00 Mb
--- Cplex 22.1.1.0 link memory 0.01 Mb (peak 0.03 Mb)
--- Starting Cplex

Version identifier: 22.1.1.0 | 2022-11-27 | 9160aff4d
CPXPARAM_Advance                                 0
CPXPARAM_Threads                                 1
CPXPARAM_MIP_Display                             4
CPXPARAM_MIP_Pool_Capacity                       0
CPXPARAM_MIP_Tolerances_AbsMIPGap                0
Primal unbounded due to dual bounds, variable 'x_scen(i2,9)'.
Presolve time = 0.00 sec. (0.07 ticks)

--- LP status (4): unbounded or infeasible.
--- Cplex Time: 0.00sec (det. 0.08 ticks)

*** WARNING: Presolve found the problem infeasible or unbounded
--- Cplex diagnoses the model to be either infeasible or unbounded.
--- There is no such GAMS Model Status so returning with a status of infeasible.
--- Model has been proven to be either infeasible or unbounded
--- Reading solution for model multi_product_pois
--- Executing after solve: elapsed 0:00:00.413
--- hw10-2.gms(165) 4 Mb
--- Generating MIP model multi_product_pois
--- hw10-2.gms(168) 4 Mb
--- LOOPS numScenarios = 1600
---   291 rows  229 columns  571 non-zeroes
--- Range statistics (absolute non-zero finite values)
--- RHS       [min, max] : [ 3.000E+00, 3.300E+01] - Zero values observed as well
--- Bound     [min, max] : [        NA,        NA] - Zero values observed as well
--- Matrix    [min, max] : [ 1.000E+00, 1.176E+03]
--- Executing CPLEX (Solvelink=2): elapsed 0:00:00.418

IBM ILOG CPLEX   45.1.0 88bbff72 Oct 14, 2023          WEI x86 64bit/MS Window

--- GAMS/CPLEX licensed for continuous and discrete problems.
--- GMO setup time: 0.00s
--- Space for names approximately 0.01 Mb
--- Use option 'names no' to turn use of names off
--- GMO memory 0.56 Mb (peak 0.56 Mb)
--- Dictionary memory 0.00 Mb
--- Cplex 22.1.1.0 link memory 0.01 Mb (peak 0.03 Mb)
--- Starting Cplex

Version identifier: 22.1.1.0 | 2022-11-27 | 9160aff4d
CPXPARAM_Advance                                 0
CPXPARAM_Threads                                 1
CPXPARAM_MIP_Display                             4
CPXPARAM_MIP_Pool_Capacity                       0
CPXPARAM_MIP_Tolerances_AbsMIPGap                0
Primal unbounded due to dual bounds, variable 'x_scen(i2,9)'.
Presolve time = 0.00 sec. (0.07 ticks)

--- LP status (4): unbounded or infeasible.
--- Cplex Time: 0.00sec (det. 0.08 ticks)

*** WARNING: Presolve found the problem infeasible or unbounded
--- Cplex diagnoses the model to be either infeasible or unbounded.
--- There is no such GAMS Model Status so returning with a status of infeasible.
--- Model has been proven to be either infeasible or unbounded
--- Reading solution for model multi_product_pois
--- Executing after solve: elapsed 0:00:00.490
--- hw10-2.gms(165) 4 Mb
--- Generating MIP model multi_product_pois
--- hw10-2.gms(168) 4 Mb
--- LOOPS numScenarios = 10000
---   291 rows  229 columns  571 non-zeroes
--- Range statistics (absolute non-zero finite values)
--- RHS       [min, max] : [ 3.000E+00, 3.300E+01] - Zero values observed as well
--- Bound     [min, max] : [        NA,        NA] - Zero values observed as well
--- Matrix    [min, max] : [ 1.000E+00, 1.176E+03]
--- Executing CPLEX (Solvelink=2): elapsed 0:00:00.495

IBM ILOG CPLEX   45.1.0 88bbff72 Oct 14, 2023          WEI x86 64bit/MS Window

--- GAMS/CPLEX licensed for continuous and discrete problems.
--- GMO setup time: 0.00s
--- Space for names approximately 0.01 Mb
--- Use option 'names no' to turn use of names off
--- GMO memory 0.56 Mb (peak 0.56 Mb)
--- Dictionary memory 0.00 Mb
--- Cplex 22.1.1.0 link memory 0.01 Mb (peak 0.03 Mb)
--- Starting Cplex

Version identifier: 22.1.1.0 | 2022-11-27 | 9160aff4d
CPXPARAM_Advance                                 0
CPXPARAM_Threads                                 1
CPXPARAM_MIP_Display                             4
CPXPARAM_MIP_Pool_Capacity                       0
CPXPARAM_MIP_Tolerances_AbsMIPGap                0
Primal unbounded due to dual bounds, variable 'x_scen(i2,9)'.
Presolve time = 0.00 sec. (0.07 ticks)

--- LP status (4): unbounded or infeasible.
--- Cplex Time: 0.00sec (det. 0.08 ticks)

*** WARNING: Presolve found the problem infeasible or unbounded
--- Cplex diagnoses the model to be either infeasible or unbounded.
--- There is no such GAMS Model Status so returning with a status of infeasible.
--- Model has been proven to be either infeasible or unbounded
--- Reading solution for model multi_product_pois
--- Executing after solve: elapsed 0:00:00.573
--- hw10-2.gms(172) 4 Mb
*** Status: Normal completion
--- Job hw10-2.gms Stop 12/08/23 20:01:24 elapsed 0:00:00.574
